p cnf 196 1
196 0
w 1 0.816315
w 2 1 0
w 2 -1 1
w 3 2 1
w 3 -2 0
w 4 3 0.504672
w 4 -3 0.832471
w 5 4 0.703349
w 5 -4 0.69504
w 6 5 0
w 6 -5 1
w 7 6 0
w 7 -6 1
w 8 7 0
w 8 -7 1
w 9 8 0
w 9 -8 1
w 10 9 0.148525
w 10 -9 0.0507235
w 11 10 1
w 11 -10 0
w 12 11 0.401892
w 12 -11 0.76921
w 13 12 1
w 13 -12 0
w 14 13 1
w 14 -13 0
w 15 1 0.0442141
w 15 -1 0.0781448
w 16 15 2 0.373033
w 16 15 -2 0.893362
w 16 -15 2 0.386815
w 16 -15 -2 0.205505
w 17 16 3 1
w 17 16 -3 0
w 17 -16 3 1
w 17 -16 -3 1
w 18 17 4 1
w 18 17 -4 0
w 18 -17 4 0
w 18 -17 -4 0
w 19 18 5 0
w 19 18 -5 1
w 19 -18 5 0
w 19 -18 -5 1
w 20 19 6 1
w 20 19 -6 1
w 20 -19 6 1
w 20 -19 -6 0
w 21 20 7 1
w 21 20 -7 1
w 21 -20 7 0
w 21 -20 -7 0
w 22 21 8 0.97885
w 22 21 -8 0.422348
w 22 -21 8 0.83965
w 22 -21 -8 0.365665
w 23 22 9 1
w 23 22 -9 0
w 23 -22 9 0
w 23 -22 -9 0
w 24 23 10 1
w 24 23 -10 0
w 24 -23 10 0
w 24 -23 -10 0
w 25 24 11 0
w 25 24 -11 0
w 25 -24 11 1
w 25 -24 -11 0
w 26 25 12 0.186634
w 26 25 -12 0.833916
w 26 -25 12 0.146822
w 26 -25 -12 0.438184
w 27 26 13 0.0149659
w 27 26 -13 0.534891
w 27 -26 13 0.888331
w 27 -26 -13 0.961254
w 28 27 14 0
w 28 27 -14 0
w 28 -27 14 1
w 28 -27 -14 1
w 29 15 1
w 29 -15 0
w 30 29 16 0
w 30 29 -16 1
w 30 -29 16 1
w 30 -29 -16 1
w 31 30 17 0
w 31 30 -17 1
w 31 -30 17 0
w 31 -30 -17 0
w 32 31 18 0.18335
w 32 31 -18 0.484331
w 32 -31 18 0.742322
w 32 -31 -18 0.369984
w 33 32 19 0
w 33 32 -19 0
w 33 -32 19 0
w 33 -32 -19 1
w 34 33 20 1
w 34 33 -20 0
w 34 -33 20 0
w 34 -33 -20 1
w 35 34 21 1
w 35 34 -21 0
w 35 -34 21 1
w 35 -34 -21 0
w 36 35 22 0.315988
w 36 35 -22 0.649684
w 36 -35 22 0.868498
w 36 -35 -22 0.320046
w 37 36 23 1
w 37 36 -23 0
w 37 -36 23 1
w 37 -36 -23 1
w 38 37 24 1
w 38 37 -24 1
w 38 -37 24 0
w 38 -37 -24 0
w 39 38 25 0
w 39 38 -25 0
w 39 -38 25 0
w 39 -38 -25 1
w 40 39 26 0
w 40 39 -26 0
w 40 -39 26 1
w 40 -39 -26 0
w 41 40 27 0.55336
w 41 40 -27 0.461812
w 41 -40 27 0.212862
w 41 -40 -27 0.574345
w 42 41 28 0
w 42 41 -28 1
w 42 -41 28 0
w 42 -41 -28 1
w 43 29 0
w 43 -29 1
w 44 43 30 0.731661
w 44 43 -30 0.1716
w 44 -43 30 0.95215
w 44 -43 -30 0.288009
w 45 44 31 0
w 45 44 -31 1
w 45 -44 31 0
w 45 -44 -31 0
w 46 45 32 1
w 46 45 -32 1
w 46 -45 32 1
w 46 -45 -32 0
w 47 46 33 1
w 47 46 -33 0
w 47 -46 33 0
w 47 -46 -33 0
w 48 47 34 1
w 48 47 -34 0
w 48 -47 34 0
w 48 -47 -34 1
w 49 48 35 0.930686
w 49 48 -35 0.315475
w 49 -48 35 0.714194
w 49 -48 -35 0.141065
w 50 49 36 0.502102
w 50 49 -36 0.872726
w 50 -49 36 0.974665
w 50 -49 -36 0.454252
w 51 50 37 1
w 51 50 -37 0
w 51 -50 37 1
w 51 -50 -37 0
w 52 51 38 0.177037
w 52 51 -38 0.522465
w 52 -51 38 0.314375
w 52 -51 -38 0.380841
w 53 52 39 0
w 53 52 -39 1
w 53 -52 39 1
w 53 -52 -39 1
w 54 53 40 0.463002
w 54 53 -40 0.726588
w 54 -53 40 0.967036
w 54 -53 -40 0.595541
w 55 54 41 0
w 55 54 -41 0
w 55 -54 41 1
w 55 -54 -41 0
w 56 55 42 1
w 56 55 -42 1
w 56 -55 42 0
w 56 -55 -42 1
w 57 43 0
w 57 -43 1
w 58 57 44 0
w 58 57 -44 0
w 58 -57 44 1
w 58 -57 -44 0
w 59 58 45 1
w 59 58 -45 0
w 59 -58 45 0
w 59 -58 -45 0
w 60 59 46 0
w 60 59 -46 0
w 60 -59 46 0
w 60 -59 -46 1
w 61 60 47 0
w 61 60 -47 0
w 61 -60 47 1
w 61 -60 -47 1
w 62 61 48 1
w 62 61 -48 0
w 62 -61 48 0
w 62 -61 -48 1
w 63 62 49 1
w 63 62 -49 1
w 63 -62 49 1
w 63 -62 -49 0
w 64 63 50 1
w 64 63 -50 0
w 64 -63 50 1
w 64 -63 -50 0
w 65 64 51 0
w 65 64 -51 1
w 65 -64 51 1
w 65 -64 -51 1
w 66 65 52 1
w 66 65 -52 1
w 66 -65 52 0
w 66 -65 -52 1
w 67 66 53 1
w 67 66 -53 1
w 67 -66 53 0
w 67 -66 -53 0
w 68 67 54 0
w 68 67 -54 0
w 68 -67 54 1
w 68 -67 -54 0
w 69 68 55 1
w 69 68 -55 1
w 69 -68 55 0
w 69 -68 -55 1
w 70 69 56 0
w 70 69 -56 0
w 70 -69 56 1
w 70 -69 -56 1
w 71 57 0.330161
w 71 -57 0.522825
w 72 71 58 1
w 72 71 -58 1
w 72 -71 58 0
w 72 -71 -58 0
w 73 72 59 0.350302
w 73 72 -59 0.772783
w 73 -72 59 0.0736345
w 73 -72 -59 0.781369
w 74 73 60 0
w 74 73 -60 0
w 74 -73 60 1
w 74 -73 -60 0
w 75 74 61 0.714334
w 75 74 -61 0.910659
w 75 -74 61 0.0602315
w 75 -74 -61 0.202653
w 76 75 62 0.366942
w 76 75 -62 0.505419
w 76 -75 62 0.922175
w 76 -75 -62 0.0650779
w 77 76 63 1
w 77 76 -63 1
w 77 -76 63 1
w 77 -76 -63 0
w 78 77 64 0.0322069
w 78 77 -64 0.543834
w 78 -77 64 0.00245919
w 78 -77 -64 0.838084
w 79 78 65 0
w 79 78 -65 1
w 79 -78 65 0
w 79 -78 -65 0
w 80 79 66 0
w 80 79 -66 0
w 80 -79 66 1
w 80 -79 -66 0
w 81 80 67 0.659759
w 81 80 -67 0.0501339
w 81 -80 67 0.987006
w 81 -80 -67 0.862412
w 82 81 68 0.353949
w 82 81 -68 0.367831
w 82 -81 68 0.796255
w 82 -81 -68 0.419026
w 83 82 69 0
w 83 82 -69 1
w 83 -82 69 1
w 83 -82 -69 0
w 84 83 70 0.349568
w 84 83 -70 0.692656
w 84 -83 70 0.474545
w 84 -83 -70 0.352027
w 85 71 0
w 85 -71 1
w 86 85 72 0
w 86 85 -72 0
w 86 -85 72 1
w 86 -85 -72 0
w 87 86 73 1
w 87 86 -73 0
w 87 -86 73 0
w 87 -86 -73 1
w 88 87 74 0.657444
w 88 87 -74 0.855689
w 88 -87 74 0.782405
w 88 -87 -74 0.531524
w 89 88 75 0
w 89 88 -75 0
w 89 -88 75 1
w 89 -88 -75 0
w 90 89 76 0.0421206
w 90 89 -76 0.590157
w 90 -89 76 0.551499
w 90 -89 -76 0.972831
w 91 90 77 0.244155
w 91 90 -77 0.447376
w 91 -90 77 0.291752
w 91 -90 -77 0.774895
w 92 91 78 1
w 92 91 -78 0
w 92 -91 78 0
w 92 -91 -78 1
w 93 92 79 0
w 93 92 -79 0
w 93 -92 79 1
w 93 -92 -79 0
w 94 93 80 1
w 94 93 -80 0
w 94 -93 80 0
w 94 -93 -80 1
w 95 94 81 1
w 95 94 -81 1
w 95 -94 81 1
w 95 -94 -81 0
w 96 95 82 1
w 96 95 -82 0
w 96 -95 82 1
w 96 -95 -82 0
w 97 96 83 0
w 97 96 -83 1
w 97 -96 83 0
w 97 -96 -83 0
w 98 97 84 0.169416
w 98 97 -84 0.325285
w 98 -97 84 0.775462
w 98 -97 -84 0.974884
w 99 85 0
w 99 -85 1
w 100 99 86 1
w 100 99 -86 1
w 100 -99 86 0
w 100 -99 -86 1
w 101 100 87 0.666857
w 101 100 -87 0.0859112
w 101 -100 87 0.103794
w 101 -100 -87 0.736438
w 102 101 88 0.447973
w 102 101 -88 0.133797
w 102 -101 88 0.137337
w 102 -101 -88 0.955082
w 103 102 89 0
w 103 102 -89 0
w 103 -102 89 0
w 103 -102 -89 1
w 104 103 90 1
w 104 103 -90 1
w 104 -103 90 1
w 104 -103 -90 0
w 105 104 91 0.743369
w 105 104 -91 0.980603
w 105 -104 91 0.821171
w 105 -104 -91 0.904115
w 106 105 92 0.0693579
w 106 105 -92 0.842231
w 106 -105 92 0.485691
w 106 -105 -92 0.198158
w 107 106 93 0
w 107 106 -93 0
w 107 -106 93 1
w 107 -106 -93 0
w 108 107 94 0
w 108 107 -94 1
w 108 -107 94 0
w 108 -107 -94 0
w 109 108 95 0.157456
w 109 108 -95 0.966442
w 109 -108 95 0.954741
w 109 -108 -95 0.419572
w 110 109 96 0.0440807
w 110 109 -96 0.765753
w 110 -109 96 0.517813
w 110 -109 -96 0.462164
w 111 110 97 0.3641
w 111 110 -97 0.205533
w 111 -110 97 0.951497
w 111 -110 -97 0.185271
w 112 111 98 0
w 112 111 -98 1
w 112 -111 98 0
w 112 -111 -98 0
w 113 99 1
w 113 -99 0
w 114 113 100 0.317801
w 114 113 -100 0.890588
w 114 -113 100 0.319445
w 114 -113 -100 0.919253
w 115 114 101 0
w 115 114 -101 0
w 115 -114 101 1
w 115 -114 -101 0
w 116 115 102 0.613571
w 116 115 -102 0.123888
w 116 -115 102 0.23153
w 116 -115 -102 0.454512
w 117 116 103 1
w 117 116 -103 1
w 117 -116 103 0
w 117 -116 -103 0
w 118 117 104 1
w 118 117 -104 0
w 118 -117 104 1
w 118 -117 -104 1
w 119 118 105 0.776325
w 119 118 -105 0.897193
w 119 -118 105 0.283111
w 119 -118 -105 0.229112
w 120 119 106 1
w 120 119 -106 1
w 120 -119 106 0
w 120 -119 -106 0
w 121 120 107 1
w 121 120 -107 1
w 121 -120 107 1
w 121 -120 -107 0
w 122 121 108 0.932627
w 122 121 -108 0.626949
w 122 -121 108 0.982453
w 122 -121 -108 0.164157
w 123 122 109 1
w 123 122 -109 0
w 123 -122 109 1
w 123 -122 -109 1
w 124 123 110 0
w 124 123 -110 0
w 124 -123 110 0
w 124 -123 -110 1
w 125 124 111 1
w 125 124 -111 1
w 125 -124 111 1
w 125 -124 -111 0
w 126 125 112 0.734199
w 126 125 -112 0.294168
w 126 -125 112 0.464256
w 126 -125 -112 0.900257
w 127 113 0
w 127 -113 1
w 128 127 114 1
w 128 127 -114 1
w 128 -127 114 0
w 128 -127 -114 1
w 129 128 115 0.247265
w 129 128 -115 0.147875
w 129 -128 115 0.988294
w 129 -128 -115 0.397686
w 130 129 116 1
w 130 129 -116 1
w 130 -129 116 0
w 130 -129 -116 1
w 131 130 117 1
w 131 130 -117 0
w 131 -130 117 1
w 131 -130 -117 0
w 132 131 118 0.587014
w 132 131 -118 0.949767
w 132 -131 118 0.548925
w 132 -131 -118 0.881182
w 133 132 119 0
w 133 132 -119 0
w 133 -132 119 1
w 133 -132 -119 1
w 134 133 120 0
w 134 133 -120 1
w 134 -133 120 0
w 134 -133 -120 0
w 135 134 121 0.516335
w 135 134 -121 0.527128
w 135 -134 121 0.890699
w 135 -134 -121 0.914022
w 136 135 122 0.932778
w 136 135 -122 0.0922629
w 136 -135 122 0.275376
w 136 -135 -122 0.365067
w 137 136 123 0.763601
w 137 136 -123 0.709261
w 137 -136 123 0.242723
w 137 -136 -123 0.159665
w 138 137 124 0
w 138 137 -124 1
w 138 -137 124 0
w 138 -137 -124 0
w 139 138 125 0
w 139 138 -125 0
w 139 -138 125 1
w 139 -138 -125 1
w 140 139 126 0.230131
w 140 139 -126 0.845457
w 140 -139 126 0.766815
w 140 -139 -126 0.499202
w 141 127 1
w 141 -127 0
w 142 141 128 0
w 142 141 -128 1
w 142 -141 128 0
w 142 -141 -128 0
w 143 142 129 1
w 143 142 -129 0
w 143 -142 129 0
w 143 -142 -129 0
w 144 143 130 0
w 144 143 -130 1
w 144 -143 130 1
w 144 -143 -130 0
w 145 144 131 0
w 145 144 -131 0
w 145 -144 131 1
w 145 -144 -131 1
w 146 145 132 1
w 146 145 -132 0
w 146 -145 132 0
w 146 -145 -132 1
w 147 146 133 0
w 147 146 -133 1
w 147 -146 133 0
w 147 -146 -133 0
w 148 147 134 0
w 148 147 -134 0
w 148 -147 134 1
w 148 -147 -134 0
w 149 148 135 0.130541
w 149 148 -135 0.0835875
w 149 -148 135 0.829505
w 149 -148 -135 0.988305
w 150 149 136 0.456764
w 150 149 -136 0.55533
w 150 -149 136 0.143404
w 150 -149 -136 0.243689
w 151 150 137 0.352124
w 151 150 -137 0.777293
w 151 -150 137 0.864204
w 151 -150 -137 0.167217
w 152 151 138 0.969842
w 152 151 -138 0.0378653
w 152 -151 138 0.326096
w 152 -151 -138 0.525402
w 153 152 139 0
w 153 152 -139 1
w 153 -152 139 1
w 153 -152 -139 0
w 154 153 140 0
w 154 153 -140 1
w 154 -153 140 0
w 154 -153 -140 1
w 155 141 1
w 155 -141 0
w 156 155 142 0.337797
w 156 155 -142 0.725061
w 156 -155 142 0.92308
w 156 -155 -142 0.329931
w 157 156 143 1
w 157 156 -143 1
w 157 -156 143 1
w 157 -156 -143 0
w 158 157 144 1
w 158 157 -144 0
w 158 -157 144 1
w 158 -157 -144 0
w 159 158 145 0
w 159 158 -145 1
w 159 -158 145 1
w 159 -158 -145 1
w 160 159 146 0.47146
w 160 159 -146 0.180461
w 160 -159 146 0.96515
w 160 -159 -146 0.663903
w 161 160 147 0
w 161 160 -147 0
w 161 -160 147 1
w 161 -160 -147 1
w 162 161 148 1
w 162 161 -148 0
w 162 -161 148 0
w 162 -161 -148 1
w 163 162 149 1
w 163 162 -149 0
w 163 -162 149 0
w 163 -162 -149 0
w 164 163 150 1
w 164 163 -150 0
w 164 -163 150 0
w 164 -163 -150 0
w 165 164 151 0
w 165 164 -151 1
w 165 -164 151 0
w 165 -164 -151 0
w 166 165 152 0
w 166 165 -152 0
w 166 -165 152 1
w 166 -165 -152 1
w 167 166 153 0
w 167 166 -153 0
w 167 -166 153 1
w 167 -166 -153 1
w 168 167 154 0.188609
w 168 167 -154 0.482841
w 168 -167 154 0.456603
w 168 -167 -154 0.10122
w 169 155 0
w 169 -155 1
w 170 169 156 0
w 170 169 -156 0
w 170 -169 156 0
w 170 -169 -156 1
w 171 170 157 0
w 171 170 -157 1
w 171 -170 157 1
w 171 -170 -157 0
w 172 171 158 0.3743
w 172 171 -158 0.217208
w 172 -171 158 0.220634
w 172 -171 -158 0.407138
w 173 172 159 0
w 173 172 -159 1
w 173 -172 159 0
w 173 -172 -159 0
w 174 173 160 1
w 174 173 -160 0
w 174 -173 160 1
w 174 -173 -160 0
w 175 174 161 0
w 175 174 -161 1
w 175 -174 161 1
w 175 -174 -161 1
w 176 175 162 1
w 176 175 -162 1
w 176 -175 162 0
w 176 -175 -162 1
w 177 176 163 0.931599
w 177 176 -163 0.425585
w 177 -176 163 0.654193
w 177 -176 -163 0.987341
w 178 177 164 1
w 178 177 -164 0
w 178 -177 164 1
w 178 -177 -164 1
w 179 178 165 1
w 179 178 -165 1
w 179 -178 165 0
w 179 -178 -165 0
w 180 179 166 0
w 180 179 -166 1
w 180 -179 166 0
w 180 -179 -166 0
w 181 180 167 0.660514
w 181 180 -167 0.190167
w 181 -180 167 0.455708
w 181 -180 -167 0.858741
w 182 181 168 0.417996
w 182 181 -168 0.0372439
w 182 -181 168 0.316833
w 182 -181 -168 0.658007
w 183 169 0.248432
w 183 -169 0.0835921
w 184 183 170 1
w 184 183 -170 0
w 184 -183 170 0
w 184 -183 -170 0
w 185 184 171 0.996831
w 185 184 -171 0.204007
w 185 -184 171 0.815479
w 185 -184 -171 0.53634
w 186 185 172 0.622252
w 186 185 -172 0.794581
w 186 -185 172 0.22289
w 186 -185 -172 0.0387663
w 187 186 173 0
w 187 186 -173 1
w 187 -186 173 1
w 187 -186 -173 1
w 188 187 174 0.643776
w 188 187 -174 0.645856
w 188 -187 174 0.409854
w 188 -187 -174 0.68102
w 189 188 175 0.0678614
w 189 188 -175 0.559535
w 189 -188 175 0.211121
w 189 -188 -175 0.151453
w 190 189 176 1
w 190 189 -176 0
w 190 -189 176 1
w 190 -189 -176 0
w 191 190 177 1
w 191 190 -177 1
w 191 -190 177 1
w 191 -190 -177 0
w 192 191 178 0
w 192 191 -178 1
w 192 -191 178 1
w 192 -191 -178 1
w 193 192 179 0
w 193 192 -179 0
w 193 -192 179 1
w 193 -192 -179 0
w 194 193 180 0.151522
w 194 193 -180 0.846368
w 194 -193 180 0.63544
w 194 -193 -180 0.561376
w 195 194 181 0
w 195 194 -181 1
w 195 -194 181 0
w 195 -194 -181 0
w 196 195 182 0.179166
w 196 195 -182 0.256146
w 196 -195 182 0.245045
w 196 -195 -182 0.83261